(set-logic QF_SLAH)

(declare-datatypes ((data_t 0)) (((c_data_t (sz Int)))))

(declare-heap (Int data_t))

(define-fun hck ((?x Int) (?y Int) (?v Int)) Bool
	(and
		(>= (- ?y ?x) 2) (<= (- ?y ?x) ?v)
		(sep (pto ?x (c_data_t (- ?y ?x))) (blk (+ ?x 1) ?y))
))

(define-fun-rec hls ((?x Int) (?y Int) (?v Int)) Bool
	(or
		(and (= ?x ?y) (_ emp Int data_t))
		(exists ((?w Int)) (sep (hck ?x ?w ?v) (hls ?w ?y ?v)))
))

(declare-const x0 Int)
(declare-const x1 Int)
(declare-const v0 Int)
(declare-const x2 Int)
(declare-const x3 Int)
(declare-const x4 Int)
(declare-const x5 Int)
(declare-const x6 Int)
(declare-const x7 Int)
(declare-const x8 Int)
(declare-const x9 Int)
(declare-const v8 Int)
(declare-const x10 Int)
(declare-const x11 Int)
(declare-const v10 Int)
(declare-const x12 Int)
(declare-const x13 Int)
(declare-const v12 Int)
(declare-const x14 Int)
(declare-const x15 Int)
(declare-const v14 Int)
(declare-const x16 Int)
(declare-const x17 Int)
(declare-const x18 Int)
(declare-const x19 Int)
(declare-const v18 Int)
(declare-const x20 Int)
(declare-const x21 Int)
(declare-const x22 Int)
(declare-const x23 Int)
(declare-const v22 Int)
(declare-const x24 Int)
(declare-const x25 Int)
(declare-const x26 Int)
(declare-const x27 Int)
(declare-const x28 Int)
(declare-const x29 Int)
(declare-const x30 Int)
(declare-const x31 Int)
(declare-const v30 Int)
(declare-const x32 Int)
(declare-const x33 Int)
(declare-const v32 Int)
(declare-const x34 Int)
(declare-const x35 Int)
(declare-const x36 Int)
(declare-const x37 Int)
(declare-const v36 Int)
(declare-const x38 Int)
(declare-const x39 Int)
(declare-const x40 Int)
(declare-const x41 Int)
(declare-const x42 Int)
(declare-const x43 Int)
(declare-const x44 Int)
(declare-const x45 Int)
(declare-const v44 Int)
(declare-const x46 Int)
(declare-const x47 Int)
(declare-const x48 Int)
(declare-const x49 Int)
(declare-const x50 Int)
(declare-const x51 Int)
(declare-const x52 Int)
(declare-const x53 Int)
(declare-const x54 Int)
(declare-const x55 Int)
(declare-const x56 Int)
(declare-const x57 Int)
(declare-const x58 Int)
(declare-const x59 Int)
(declare-const x60 Int)
(declare-const x61 Int)
(declare-const x62 Int)
(declare-const x63 Int)
(declare-const x64 Int)
(declare-const x65 Int)
(declare-const v64 Int)
(declare-const x66 Int)
(declare-const x67 Int)
(declare-const x68 Int)
(declare-const x69 Int)
(declare-const x70 Int)
(declare-const x71 Int)
(declare-const x72 Int)
(declare-const x73 Int)
(declare-const x74 Int)
(declare-const x75 Int)
(declare-const x76 Int)
(declare-const x77 Int)
(declare-const x78 Int)
(declare-const x79 Int)
(declare-const v78 Int)
(declare-const x80 Int)
(declare-const x81 Int)
(declare-const x82 Int)
(declare-const x83 Int)
(declare-const x84 Int)
(declare-const x85 Int)
(declare-const x86 Int)
(declare-const x87 Int)
(declare-const x88 Int)
(declare-const x89 Int)
(declare-const x90 Int)
(declare-const x91 Int)
(declare-const x92 Int)
(declare-const x93 Int)
(declare-const v92 Int)
(declare-const x94 Int)
(declare-const x95 Int)
(declare-const x96 Int)
(declare-const x97 Int)
(declare-const v96 Int)
(declare-const x98 Int)
(declare-const x99 Int)
(declare-const v98 Int)
(declare-const x100 Int)
(declare-const x101 Int)
(declare-const x102 Int)
(declare-const x103 Int)
(declare-const v102 Int)
(declare-const x104 Int)
(declare-const x105 Int)
(declare-const v104 Int)
(declare-const x106 Int)
(declare-const x107 Int)
(declare-const x108 Int)
(declare-const x109 Int)
(declare-const x110 Int)
(declare-const x111 Int)
(declare-const v110 Int)
(declare-const x112 Int)
(declare-const x113 Int)
(declare-const x114 Int)
(declare-const x115 Int)
(declare-const x116 Int)
(declare-const x117 Int)
(declare-const v116 Int)
(declare-const x118 Int)
(declare-const x119 Int)
(declare-const v118 Int)
(declare-const x120 Int)
(declare-const x121 Int)
(declare-const x122 Int)
(declare-const x123 Int)
(declare-const x124 Int)
(declare-const x125 Int)
(declare-const x126 Int)
(declare-const x127 Int)
(declare-const x128 Int)
(declare-const x129 Int)
(declare-const x130 Int)
(declare-const x131 Int)
(declare-const v130 Int)
(declare-const x132 Int)
(declare-const x133 Int)
(declare-const x134 Int)
(declare-const x135 Int)
(declare-const x136 Int)
(declare-const x137 Int)
(declare-const x138 Int)
(declare-const x139 Int)
(declare-const x140 Int)
(declare-const x141 Int)
(declare-const v140 Int)
(declare-const x142 Int)
(declare-const x143 Int)
(declare-const x144 Int)
(declare-const x145 Int)
(declare-const x146 Int)
(declare-const x147 Int)
(declare-const x148 Int)
(declare-const x149 Int)
(declare-const x150 Int)
(declare-const x151 Int)
(declare-const x152 Int)
(declare-const x153 Int)
(declare-const x154 Int)
(declare-const x155 Int)
(declare-const x156 Int)
(declare-const x157 Int)
(declare-const v156 Int)
(declare-const x158 Int)
(declare-const x159 Int)
(declare-const x160 Int)
(declare-const x161 Int)
(declare-const x162 Int)
(declare-const x163 Int)
(declare-const x164 Int)
(declare-const x165 Int)
(declare-const x166 Int)
(declare-const x167 Int)
(declare-const v166 Int)
(declare-const x168 Int)
(declare-const x169 Int)
(declare-const x170 Int)
(declare-const x171 Int)
(declare-const v170 Int)
(declare-const x172 Int)
(declare-const x173 Int)
(declare-const x174 Int)
(declare-const x175 Int)
(declare-const v174 Int)
(declare-const x176 Int)
(declare-const x177 Int)
(declare-const x178 Int)
(declare-const x179 Int)
(declare-const v178 Int)
(declare-const x180 Int)
(declare-const x181 Int)
(declare-const v180 Int)
(declare-const x182 Int)
(declare-const x183 Int)
(declare-const v182 Int)
(declare-const x184 Int)
(declare-const x185 Int)
(declare-const x186 Int)
(declare-const x187 Int)
(declare-const x188 Int)
(declare-const x189 Int)

(assert(and
(distinct x159 x116) (< x39 x152) (< x81 x185) (= x54 x80) (= x47 x43) (< x93 x17) (distinct x130 x136) 
(sep
(hls x0 x1 v0)
(blk x2 x3)
(blk x4 x5)
(pto x6 (c_data_t x7))
(hls x8 x9 v8)
(hls x10 x11 v10)
(hls x12 x13 v12)
(hls x14 x15 v14)
(blk x16 x17)
(hls x18 x19 v18)
(blk x20 x21)
(hls x22 x23 v22)
(blk x24 x25)
(blk x26 x27)
(pto x28 (c_data_t x29))
(hls x30 x31 v30)
(hls x32 x33 v32)
(blk x34 x35)
(hls x36 x37 v36)
(blk x38 x39)
(blk x40 x41)
(blk x42 x43)
(hls x44 x45 v44)
(pto x46 (c_data_t x47))
(pto x48 (c_data_t x49))
(blk x50 x51)
(blk x52 x53)
(blk x54 x55)
(blk x56 x57)
(blk x58 x59)
(pto x60 (c_data_t x61))
(pto x62 (c_data_t x63))
(hls x64 x65 v64)
(blk x66 x67)
(pto x68 (c_data_t x69))
(pto x70 (c_data_t x71))
(pto x72 (c_data_t x73))
(pto x74 (c_data_t x75))
(blk x76 x77)
(hls x78 x79 v78)
(pto x80 (c_data_t x81))
(pto x82 (c_data_t x83))
(blk x84 x85)
(blk x86 x87)
(blk x88 x89)
(pto x90 (c_data_t x91))
(hls x92 x93 v92)
(blk x94 x95)
(hls x96 x97 v96)
(hls x98 x99 v98)
(pto x100 (c_data_t x101))
(hls x102 x103 v102)
(hls x104 x105 v104)
(blk x106 x107)
(pto x108 (c_data_t x109))
(hls x110 x111 v110)
(blk x112 x113)
(pto x114 (c_data_t x115))
(hls x116 x117 v116)
(hls x118 x119 v118)
(pto x120 (c_data_t x121))
(blk x122 x123)
(pto x124 (c_data_t x125))
(pto x126 (c_data_t x127))
(pto x128 (c_data_t x129))
(hls x130 x131 v130)
(blk x132 x133)
(pto x134 (c_data_t x135))
(pto x136 (c_data_t x137))
(blk x138 x139)
(hls x140 x141 v140)
(blk x142 x143)
(pto x144 (c_data_t x145))
(pto x146 (c_data_t x147))
(pto x148 (c_data_t x149))
(pto x150 (c_data_t x151))
(pto x152 (c_data_t x153))
(pto x154 (c_data_t x155))
(hls x156 x157 v156)
(blk x158 x159)
(blk x160 x161)
(blk x162 x163)
(blk x164 x165)
(hls x166 x167 v166)
(blk x168 x169)
(hls x170 x171 v170)
(blk x172 x173)
(hls x174 x175 v174)
(blk x176 x177)
(hls x178 x179 v178)
(hls x180 x181 v180)
(hls x182 x183 v182)
(pto x184 (c_data_t x185))
(pto x186 (c_data_t x187))
(pto x188 (c_data_t x189))
)))

(check-sat)